solution status: optimal solution found
objective value:                     182940.710178217
d11(0,0)                                            1 	(obj:0)
d11(1,1)                                            1 	(obj:0)
d11(1,2)                                            1 	(obj:0)
d11(1,3)                                            1 	(obj:0)
d11(2,4)                                            1 	(obj:0)
d11(2,5)                                            1 	(obj:0)
d11(2,6)                                            1 	(obj:0)
d11(2,7)                                            1 	(obj:0)
d11(2,8)                                            1 	(obj:0)
d11(2,9)                                            1 	(obj:0)
d11(2,10)                                           1 	(obj:0)
d11(2,11)                                           1 	(obj:0)
d11(2,12)                                           1 	(obj:0)
d11(3,13)                                           1 	(obj:0)
d11(3,16)                                           1 	(obj:0)
d11(3,17)                                           1 	(obj:0)
d11(3,19)                                           1 	(obj:0)
d11(3,20)                                           1 	(obj:0)
d11(3,22)                                           1 	(obj:0)
d11(3,23)                                           1 	(obj:0)
d11(3,25)                                           1 	(obj:0)
d11(3,26)                                           1 	(obj:0)
d11(3,28)                                           1 	(obj:0)
d11(3,29)                                           1 	(obj:0)
d11(3,31)                                           1 	(obj:0)
d11(3,32)                                           1 	(obj:0)
d11(3,34)                                           1 	(obj:0)
d11(3,35)                                           1 	(obj:0)
d11(3,37)                                           1 	(obj:0)
d11(4,40)                                           1 	(obj:0)
d11(4,41)                                           1 	(obj:0)
d11(4,43)                                           1 	(obj:0)
d11(4,44)                                           1 	(obj:0)
d11(4,46)                                           1 	(obj:0)
d11(4,47)                                           1 	(obj:0)
d11(4,49)                                           1 	(obj:0)
d11(4,50)                                           1 	(obj:0)
d11(4,52)                                           1 	(obj:0)
d11(4,53)                                           1 	(obj:0)
d11(4,55)                                           1 	(obj:0)
d11(4,56)                                           1 	(obj:0)
d11(4,58)                                           1 	(obj:0)
d11(4,59)                                           1 	(obj:0)
d11(4,61)                                           1 	(obj:0)
d11(4,62)                                           1 	(obj:0)
d11(4,64)                                           1 	(obj:0)
d11(4,65)                                           1 	(obj:0)
d11(4,67)                                           1 	(obj:0)
d11(4,68)                                           1 	(obj:0)
d11(4,70)                                           1 	(obj:0)
d11(4,71)                                           1 	(obj:0)
d11(4,73)                                           1 	(obj:0)
d11(4,74)                                           1 	(obj:0)
d11(4,76)                                           1 	(obj:0)
d11(4,77)                                           1 	(obj:0)
d11(4,79)                                           1 	(obj:0)
d11(4,80)                                           1 	(obj:0)
d11(4,82)                                           1 	(obj:0)
d11(4,83)                                           1 	(obj:0)
d11(4,85)                                           1 	(obj:0)
d11(4,86)                                           1 	(obj:0)
d11(4,88)                                           1 	(obj:0)
d11(4,91)                                           1 	(obj:0)
d11(4,94)                                           1 	(obj:0)
d11(4,95)                                           1 	(obj:0)
d11(4,97)                                           1 	(obj:0)
d11(4,98)                                           1 	(obj:0)
d11(4,100)                                          1 	(obj:0)
d11(4,101)                                          1 	(obj:0)
d11(4,103)                                          1 	(obj:0)
d11(4,104)                                          1 	(obj:0)
d11(4,106)                                          1 	(obj:0)
d11(4,107)                                          1 	(obj:0)
d11(4,109)                                          1 	(obj:0)
d11(4,110)                                          1 	(obj:0)
d11(4,112)                                          1 	(obj:0)
d11(4,113)                                          1 	(obj:0)
d11(4,115)                                          1 	(obj:0)
d11(4,118)                                          1 	(obj:0)
d11(4,119)                                          1 	(obj:0)
d12(3,15)                                           1 	(obj:0)
d12(3,18)                                           1 	(obj:0)
d12(3,21)                                           1 	(obj:0)
d12(3,24)                                           1 	(obj:0)
d12(3,27)                                           1 	(obj:0)
d12(3,30)                                           1 	(obj:0)
d12(3,33)                                           1 	(obj:0)
d12(3,36)                                           1 	(obj:0)
d12(3,39)                                           1 	(obj:0)
d12(4,42)                                           1 	(obj:0)
d12(4,45)                                           1 	(obj:0)
d12(4,48)                                           1 	(obj:0)
d12(4,51)                                           1 	(obj:0)
d12(4,54)                                           1 	(obj:0)
d12(4,57)                                           1 	(obj:0)
d12(4,60)                                           1 	(obj:0)
d12(4,63)                                           1 	(obj:0)
d12(4,66)                                           1 	(obj:0)
d12(4,69)                                           1 	(obj:0)
d12(4,72)                                           1 	(obj:0)
d12(4,75)                                           1 	(obj:0)
d12(4,78)                                           1 	(obj:0)
d12(4,81)                                           1 	(obj:0)
d12(4,84)                                           1 	(obj:0)
d12(4,87)                                           1 	(obj:0)
d12(4,90)                                           1 	(obj:0)
d12(4,93)                                           1 	(obj:0)
d12(4,96)                                           1 	(obj:0)
d12(4,99)                                           1 	(obj:0)
d12(4,102)                                          1 	(obj:0)
d12(4,105)                                          1 	(obj:0)
d12(4,108)                                          1 	(obj:0)
d12(4,111)                                          1 	(obj:0)
d12(4,114)                                          1 	(obj:0)
d12(4,117)                                          1 	(obj:0)
d12(4,120)                                          1 	(obj:0)
d21(2,4)                                            1 	(obj:0)
d21(3,13)                                           1 	(obj:0)
d21(3,14)                                           1 	(obj:0)
d21(3,15)                                           1 	(obj:0)
d21(3,16)                                           1 	(obj:0)
d21(3,17)                                           1 	(obj:0)
d21(3,22)                                           1 	(obj:0)
d21(3,23)                                           1 	(obj:0)
d21(3,25)                                           1 	(obj:0)
d21(4,40)                                           1 	(obj:0)
d21(4,41)                                           1 	(obj:0)
d21(4,42)                                           1 	(obj:0)
d21(4,43)                                           1 	(obj:0)
d21(4,44)                                           1 	(obj:0)
d21(4,45)                                           1 	(obj:0)
d21(4,46)                                           1 	(obj:0)
d21(4,47)                                           1 	(obj:0)
d21(4,48)                                           1 	(obj:0)
d21(4,49)                                           1 	(obj:0)
d21(4,50)                                           1 	(obj:0)
d21(4,51)                                           1 	(obj:0)
d21(4,52)                                           1 	(obj:0)
d21(4,53)                                           1 	(obj:0)
d21(4,55)                                           1 	(obj:0)
d21(4,58)                                           1 	(obj:0)
d21(4,59)                                           1 	(obj:0)
d21(4,61)                                           1 	(obj:0)
d21(4,67)                                           1 	(obj:0)
d21(4,68)                                           1 	(obj:0)
d21(4,69)                                           1 	(obj:0)
d21(4,70)                                           1 	(obj:0)
d21(4,71)                                           1 	(obj:0)
d21(4,73)                                           1 	(obj:0)
d21(4,76)                                           1 	(obj:0)
d21(4,77)                                           1 	(obj:0)
d21(4,79)                                           1 	(obj:0)
d21(4,85)                                           1 	(obj:0)
d21(4,94)                                           1 	(obj:0)
d21(4,95)                                           1 	(obj:0)
d21(4,97)                                           1 	(obj:0)
d21(4,103)                                          1 	(obj:0)
y2(4,102)                            960.592982999987 	(obj:0)
y2(4,105)                            960.592982999987 	(obj:0)
y2(4,108)                            960.592982999987 	(obj:0)
y2(4,111)                            960.592982999987 	(obj:0)
y2(4,114)                            960.592982999987 	(obj:0)
y2(4,117)                            960.592982999987 	(obj:0)
y2(4,120)                            960.592982999987 	(obj:0)
STE(1,1)                             7928.78179333336 	(obj:0)
STE(0,0)                                        11025 	(obj:0)
STE(1,2)                             8925.54779666662 	(obj:0)
STE(1,3)                                        10143 	(obj:0)
STE(2,4)                             2059.67066281672 	(obj:0)
STE(2,5)                             3056.43666615001 	(obj:0)
STE(2,6)                             4273.88886948339 	(obj:0)
STE(2,7)                             3056.43666614998 	(obj:0)
STE(2,8)                             4053.20266948327 	(obj:0)
STE(2,9)                             5270.65487281665 	(obj:0)
STE(2,10)                            4273.88886948336 	(obj:0)
STE(2,11)                            5270.65487281665 	(obj:0)
STE(2,12)                            6488.10707615002 	(obj:0)
STE(3,13)                            180.904659483373 	(obj:0)
STE(3,14)                            1177.67066281672 	(obj:0)
STE(3,15)                            2090.23399666671 	(obj:0)
STE(3,16)                            1177.67066281666 	(obj:0)
STE(3,17)                            2174.43666615007 	(obj:0)
STE(3,18)                                        3087 	(obj:0)
STE(3,19)                            2395.12286615004 	(obj:0)
STE(3,20)                            3391.88886948339 	(obj:0)
STE(3,21)                            4304.45220333338 	(obj:0)
STE(3,22)                            1177.67066281663 	(obj:0)
STE(3,23)                            2174.43666614998 	(obj:0)
STE(3,24)                            3086.99999999997 	(obj:0)
STE(3,25)                            2174.43666614992 	(obj:0)
STE(3,26)                            3171.20266948327 	(obj:0)
STE(3,27)                            4083.76600333326 	(obj:0)
STE(3,28)                             3391.8888694833 	(obj:0)
STE(3,29)                            4388.65487281659 	(obj:0)
STE(3,30)                            5301.21820666664 	(obj:0)
STE(3,31)                            2395.12286615001 	(obj:0)
STE(3,32)                             3391.8888694833 	(obj:0)
STE(3,33)                            4304.45220333335 	(obj:0)
STE(3,34)                             3391.8888694833 	(obj:0)
STE(3,35)                            4388.65487281659 	(obj:0)
STE(3,36)                            5301.21820666664 	(obj:0)
STE(3,37)                            4609.34107281667 	(obj:0)
STE(3,38)                            5606.10707615002 	(obj:0)
STE(3,39)                            6518.67041000001 	(obj:0)
STE(4,40)                           -1697.86134384998 	(obj:0)
STE(4,41)                           -701.095340516628 	(obj:0)
STE(4,42)                             211.46799333336 	(obj:0)
STE(4,43)                           -701.095340516628 	(obj:0)
STE(4,44)                            295.670662816723 	(obj:0)
STE(4,45)                            1208.23399666671 	(obj:0)
STE(4,46)                             211.46799333336 	(obj:0)
STE(4,47)                            1208.23399666671 	(obj:0)
STE(4,48)                             2120.7973305167 	(obj:0)
STE(4,49)                           -701.095340516687 	(obj:0)
STE(4,50)                            295.670662816663 	(obj:0)
STE(4,51)                            1208.23399666665 	(obj:0)
STE(4,52)                            295.670662816725 	(obj:0)
STE(4,53)                            1292.43666615007 	(obj:0)
STE(4,54)                            2205.00000000006 	(obj:0)
STE(4,55)                            1208.23399666665 	(obj:0)
STE(4,56)                                        2205 	(obj:0)
STE(4,57)                            3117.56333384999 	(obj:0)
STE(4,58)                            516.356862816691 	(obj:0)
STE(4,59)                            1513.12286615004 	(obj:0)
STE(4,60)                            2425.68620000003 	(obj:0)
STE(4,61)                            1513.12286615004 	(obj:0)
STE(4,62)                            2509.88886948339 	(obj:0)
STE(4,63)                            3422.45220333338 	(obj:0)
STE(4,64)                            2425.68620000003 	(obj:0)
STE(4,65)                            3422.45220333338 	(obj:0)
STE(4,66)                            4335.01553718337 	(obj:0)
STE(4,67)                           -701.095340516719 	(obj:0)
STE(4,68)                            295.670662816631 	(obj:0)
STE(4,69)                            1208.23399666662 	(obj:0)
STE(4,70)                            295.670662816631 	(obj:0)
STE(4,71)                            1292.43666614998 	(obj:0)
STE(4,72)                            2204.99999999997 	(obj:0)
STE(4,73)                            1208.23399666662 	(obj:0)
STE(4,74)                            2204.99999999997 	(obj:0)
STE(4,75)                            3117.56333384996 	(obj:0)
STE(4,76)                            295.670662816572 	(obj:0)
STE(4,77)                            1292.43666614992 	(obj:0)
STE(4,78)                            2204.99999999991 	(obj:0)
STE(4,79)                            1292.43666614992 	(obj:0)
STE(4,80)                            2289.20266948327 	(obj:0)
STE(4,81)                            3201.76600333326 	(obj:0)
STE(4,82)                            2204.99999999991 	(obj:0)
STE(4,83)                            3201.76600333326 	(obj:0)
STE(4,84)                            4114.32933718325 	(obj:0)
STE(4,85)                            1513.12286614995 	(obj:0)
STE(4,86)                             2509.8888694833 	(obj:0)
STE(4,87)                            3422.45220333329 	(obj:0)
STE(4,88)                            2509.88886948324 	(obj:0)
STE(4,89)                            3506.65487281659 	(obj:0)
STE(4,90)                            4419.21820666658 	(obj:0)
STE(4,91)                            3422.45220333329 	(obj:0)
STE(4,92)                            4419.21820666664 	(obj:0)
STE(4,93)                            5331.78154051662 	(obj:0)
STE(4,94)                             516.35686281666 	(obj:0)
STE(4,95)                            1513.12286615001 	(obj:0)
STE(4,96)                                   2425.6862 	(obj:0)
STE(4,97)                            1513.12286614995 	(obj:0)
STE(4,98)                             2509.8888694833 	(obj:0)
STE(4,99)                            3422.45220333329 	(obj:0)
STE(4,100)                                  2425.6862 	(obj:0)
STE(4,101)                           3422.45220333335 	(obj:0)
STE(4,102)                           4335.01553718333 	(obj:0)
STE(4,103)                           1513.12286614995 	(obj:0)
STE(4,104)                            2509.8888694833 	(obj:0)
STE(4,105)                           3422.45220333329 	(obj:0)
STE(4,106)                           2509.88886948324 	(obj:0)
STE(4,107)                           3506.65487281659 	(obj:0)
STE(4,108)                           4419.21820666658 	(obj:0)
STE(4,109)                           3422.45220333329 	(obj:0)
STE(4,110)                           4419.21820666664 	(obj:0)
STE(4,111)                           5331.78154051662 	(obj:0)
STE(4,112)                           2730.57506948332 	(obj:0)
STE(4,113)                           3727.34107281667 	(obj:0)
STE(4,114)                           4639.90440666666 	(obj:0)
STE(4,115)                           3727.34107281667 	(obj:0)
STE(4,116)                           4724.10707615002 	(obj:0)
STE(4,117)                           5636.67041000001 	(obj:0)
STE(4,118)                           4639.90440666666 	(obj:0)
STE(4,119)                           5636.67040999995 	(obj:0)
STE(4,120)                           6549.23374384999 	(obj:0)
y1(4,100)                            897.089403000015 	(obj:0)
y1(4,103)                            897.089403000015 	(obj:0)
y1(4,106)                            897.089403000015 	(obj:0)
y1(4,109)                            897.089403000015 	(obj:0)
y1(4,112)                            897.089403000015 	(obj:0)
y1(4,115)                            897.089403000015 	(obj:0)
y1(4,118)                            897.089403000015 	(obj:0)
WB(3)                                 3399.3204933139 	(obj:0)
AVE(3)                                3399.3204933139 	(obj:0)
AVE(4)                               3353.21046544222 	(obj:0)
y2(4,99)                             960.592982999987 	(obj:0)
WG(4)                                3353.21046544222 	(obj:10)
BG(1)                                4495.91834999996 	(obj:10)
BG(2)                                7042.45266782139 	(obj:10)
BG(3)                                         3377.85 	(obj:10)
BG(4)                                24.6395345577802 	(obj:10)
WB(1)                                3134.60043707458 	(obj:0)
AVE(1)                               3134.60043707458 	(obj:0)
WB(2)                                3326.45170866643 	(obj:0)
AVE(2)                               3326.45170866643 	(obj:0)
y1(1,1)                              1992.79638599997 	(obj:0)
y1(1,2)                              1095.70698300004 	(obj:0)
y1(2,4)                              4488.40001746498 	(obj:0)
y1(2,5)                              3591.31061446502 	(obj:0)
y1(2,6)                              2495.60363146498 	(obj:0)
y1(2,7)                              4488.40001746498 	(obj:0)
y1(2,8)                              3591.31061446502 	(obj:0)
y1(2,9)                              2495.60363146498 	(obj:0)
y1(2,10)                             4488.40001746498 	(obj:0)
y1(2,11)                             3591.31061446502 	(obj:0)
y1(2,12)                             2495.60363146498 	(obj:0)
y1(3,13)                             897.089403000015 	(obj:0)
y1(3,16)                             897.089403000015 	(obj:0)
y1(3,19)                             897.089403000015 	(obj:0)
y1(3,22)                             897.089403000015 	(obj:0)
y1(3,25)                             897.089403000015 	(obj:0)
y1(3,28)                             897.089403000015 	(obj:0)
y1(3,31)                             897.089403000015 	(obj:0)
y1(3,34)                             897.089403000015 	(obj:0)
y1(3,37)                             897.089403000015 	(obj:0)
y1(4,40)                             897.089403000015 	(obj:0)
y1(4,43)                             897.089403000015 	(obj:0)
y1(4,46)                             897.089403000015 	(obj:0)
y1(4,49)                             897.089403000015 	(obj:0)
y1(4,52)                             897.089403000015 	(obj:0)
y1(4,55)                             897.089403000015 	(obj:0)
y1(4,58)                             897.089403000015 	(obj:0)
y1(4,61)                             897.089403000015 	(obj:0)
y1(4,64)                             897.089403000015 	(obj:0)
y1(4,67)                             897.089403000015 	(obj:0)
y1(4,70)                             897.089403000015 	(obj:0)
y1(4,73)                             897.089403000015 	(obj:0)
y1(4,76)                             897.089403000015 	(obj:0)
y1(4,79)                             897.089403000015 	(obj:0)
y1(4,82)                             897.089403000015 	(obj:0)
y1(4,85)                             897.089403000015 	(obj:0)
y1(4,88)                             897.089403000015 	(obj:0)
y1(4,91)                             897.089403000015 	(obj:0)
y1(4,94)                             897.089403000015 	(obj:0)
y1(4,97)                             897.089403000015 	(obj:0)
y2(3,15)                             960.592982999986 	(obj:0)
y2(3,18)                             960.592982999987 	(obj:0)
y2(3,21)                             960.592982999986 	(obj:0)
y2(3,24)                             960.592982999986 	(obj:0)
y2(3,27)                             960.592982999986 	(obj:0)
y2(3,30)                             960.592982999986 	(obj:0)
y2(3,33)                             960.592982999986 	(obj:0)
y2(3,36)                             960.592982999986 	(obj:0)
y2(3,39)                             960.592982999986 	(obj:0)
y2(4,42)                             960.592982999987 	(obj:0)
y2(4,45)                             960.592982999987 	(obj:0)
y2(4,48)                             960.592982999987 	(obj:0)
y2(4,51)                             960.592982999987 	(obj:0)
y2(4,54)                             960.592982999987 	(obj:0)
y2(4,57)                             960.592982999987 	(obj:0)
y2(4,60)                             960.592982999987 	(obj:0)
y2(4,63)                             960.592982999987 	(obj:0)
y2(4,66)                             960.592982999987 	(obj:0)
y2(4,69)                             960.592982999987 	(obj:0)
y2(4,72)                             960.592982999987 	(obj:0)
y2(4,75)                             960.592982999987 	(obj:0)
y2(4,78)                             960.592982999987 	(obj:0)
y2(4,81)                             960.592982999987 	(obj:0)
y2(4,84)                             960.592982999987 	(obj:0)
y2(4,87)                             960.592982999987 	(obj:0)
y2(4,90)                             960.592982999987 	(obj:0)
y2(4,93)                             960.592982999987 	(obj:0)
y2(4,96)                             960.592982999987 	(obj:0)
